p cnf 62 193
3 1 0
3 2 0
-1 -2 -3 0
-4 -6 -7 0
4 6 -7 0
-4 6 7 0
4 -6 7 0
-8 -5 0
-8 7 0
5 -7 8 0
-9 -4 0
-9 -8 0
4 8 9 0
-9 10 0
9 10 0
3 10 -11 0
-3 -10 -11 0
3 -10 11 0
-3 10 11 0
-12 -4 0
-12 -5 0
4 5 12 0
13 -12 0
13 8 0
12 -8 -13 0
15 -13 0
15 -14 0
13 14 -15 0
17 -3 0
17 16 0
3 -16 -17 0
18 -7 0
18 -12 0
7 12 -18 0
19 17 0
19 18 0
-17 -18 -19 0
3 20 -21 0
-3 -20 -21 0
3 -20 21 0
-3 20 21 0
-19 21 -22 0
19 -21 -22 0
-19 -21 22 0
19 21 22 0
23 -15 0
23 22 0
15 -22 -23 0
-24 -11 0
-24 23 0
11 -23 24 0
-25 16 -26 0
25 -16 -26 0
-25 -16 26 0
25 16 26 0
8 26 -27 0
-8 -26 -27 0
8 -26 27 0
-8 26 27 0
28 -27 0
28 -7 0
27 7 -28 0
-30 1 0
-30 -9 0
-1 9 30 0
29 30 -31 0
-29 -30 -31 0
29 -30 31 0
-29 30 31 0
12 -31 -32 0
-12 31 -32 0
12 31 32 0
-12 -31 32 0
33 28 0
33 32 0
-28 -32 -33 0
-34 26 0
-34 -17 0
-26 17 34 0
36 14 0
36 30 0
-14 -30 -36 0
37 -36 0
37 -6 0
36 6 -37 0
38 35 0
38 -37 0
-35 37 -38 0
-39 -34 0
-39 -38 0
34 38 39 0
40 33 0
40 -39 0
-33 39 -40 0
-24 40 -41 0
24 -40 -41 0
-24 -40 41 0
24 40 41 0
42 -18 0
42 9 0
18 -9 -42 0
44 -8 0
44 -43 0
8 43 -44 0
-1 44 -45 0
1 -44 -45 0
-1 -44 45 0
1 44 45 0
46 -30 0
46 -45 0
30 45 -46 0
42 46 -47 0
-42 -46 -47 0
42 -46 47 0
-42 46 47 0
4 -13 -48 0
-4 13 -48 0
4 13 48 0
-4 -13 48 0
-49 20 0
-49 -25 0
-20 25 49 0
50 48 0
50 49 0
-48 -49 -50 0
51 -47 0
51 50 0
47 -50 -51 0
-5 18 -52 0
5 -18 -52 0
-5 -18 52 0
5 18 52 0
-52 4 -53 0
52 -4 -53 0
-52 -4 53 0
52 4 53 0
-53 -54 -55 0
53 54 -55 0
-53 54 55 0
53 -54 55 0
-56 -16 0
-56 -16 0
16 56 0
57 -55 0
57 56 0
55 -56 -57 0
-59 -16 0
-59 58 0
16 -58 59 0
-60 57 0
-60 59 0
-57 -59 60 0
-51 -60 -61 0
51 60 -61 0
-51 60 61 0
51 -60 61 0
41 61 -62 0
-41 -61 -62 0
41 -61 62 0
-41 61 62 0
-34 -2 -29 -51 56 -9 0
-6 25 59 -7 -52 0
-2 61 58 23 0
-6 47 -48 30 -31 10 0
47 19 58 0
-35 -20 -53 0
3 25 -38 56 -23 0
-36 -10 0
46 45 -6 0
-36 11 0
-27 -53 49 -42 0
-13 5 -47 -49 0
52 -10 58 -38 0
-56 -2 -51 58 0
2 -15 53 -16 0
27 -25 0
-29 -19 16 -38 0
11 6 -41 62 0
56 53 0
52 -48 -36 0
-11 53 0
37 23 0
1 -48 -51 -9 -44 -24 0
13 19 -15 51 60 7 0
-12 -53 -58 6 0
-32 -20 22 3 -11 47 0
24 8 0
56 -55 54 0
-8 35 -45 -3 -23 49 0
47 30 0
-6 23 -49 -45 0
-30 24 27 -35 -41 -49 0
62 0
